50 121
0 24
0 27
0 47
1 7
1 25
1 35
1 43
2 12
2 18
2 25
2 32
2 34
2 35
3 6
3 22
3 32
3 33
4 21
4 34
4 38
4 44
4 48
5 12
5 20
5 23
5 31
5 38
5 39
5 47
5 49
6 13
6 15
6 20
6 24
6 32
6 40
6 45
7 8
7 19
8 15
8 16
8 17
8 24
8 27
8 40
9 11
9 24
10 31
10 35
11 16
11 21
11 30
11 49
12 14
12 17
12 23
12 42
12 47
13 17
13 26
13 29
13 33
13 39
14 33
15 48
16 27
16 29
16 30
16 41
16 44
17 21
17 32
17 46
18 20
18 32
18 34
19 31
19 35
19 38
19 44
20 21
20 28
21 22
21 28
22 33
22 46
23 40
23 46
24 26
24 48
25 47
25 49
26 35
26 37
26 40
26 44
26 46
27 29
27 46
28 33
28 48
29 38
29 42
29 45
30 42
31 41
32 33
33 46
34 47
35 46
36 39
36 42
36 49
37 42
38 45
39 43
41 49
42 45
42 46
44 45
44 47
